NAME : Unnamed.860.tour
COMMENT : Length = 860
COMMENT : Found by LKH [Keld Helsgaun] Tue Jan 13 16:45:14 2015
TYPE : TOUR
DIMENSION : 102
TOUR_SECTION
1
97
96
18
29
25
26
21
45
82
89
55
8
12
27
15
19
32
34
74
31
5
38
51
81
68
59
78
72
42
47
46
93
43
52
58
76
41
37
83
61
79
90
62
44
84
69
88
64
2
11
3
35
24
17
28
22
20
30
23
7
33
9
10
13
14
48
53
6
4
16
36
49
54
87
60
71
91
57
77
86
63
66
73
85
50
65
75
40
39
67
80
95
56
70
92
98
99
94
101
100
102
-1
EOF
